\ENCODING=ISO-8859-1
\Problem name: IloCplex

Maximize
 obj: 912 vnp1#0 - 36 pi0_k1#1 - 226 pi1_k2#2 - 88 pi5_k3#3 + 1808 vnp4#4
      - 46 pi9_k14#5 - 131 pi13_k15#6 - 186 pi17_k16#7 - 73 pi21_k17#8
      - 43 pi25_k18#9 + 1653 vnp6#10 - 30 pi29_k23#11 - 78 pi30_k24#12
      - 49 pi34_k25#13 - 45 pi38_k26#14 - 50 pi42_k27#15 - 159 pi46_k28#16
      + 681 vnp7#17 - 81 pi50_k29#18 - 54 pi54_k30#19 - 51 pi55_k31#20
      - 207 pi59_k32#21 - 37 pi63_k33#22 + 1889 vnp8#23 - 128 pi67_k34#24
      - 129 pi71_k35#25 - 146 pi75_k36#26 - 77 pi79_k37#27 - 21 pi83_k38#28
      - 106 pi84_k39#29 + 1116 vnp9#30 - 49 pi88_k40#31 - 119 pi89_k41#32
      - 63 pi93_k42#33 - 94 pi97_k43#34 - 96 pi101_k44#35 + 884 vnp10#36
      - 41 pi105_k45#37 - 53 pi109_k46#38 - 137 pi110_k47#39 - 53 pi114_k48#40
      + 1384 vnp11#41 - 83 pi118_k49#42 - 165 pi119_k50#43 - 76 pi123_k51#44
      - 70 pi124_k52#45 - 39 pi128_k53#46 + 1064 vnp12#47 - 106 pi132_k54#48
      - 58 pi136_k55#49 - 53 pi140_k56#50 + 599 vnp15#51 - 75 pi141_k64#52
      - 231 pi145_k65#53 - 81 pi149_k66#54 + 777 vnp18#55 - 35 pi153_k74#56
      - 70 pi157_k75#57 - 118 pi161_k76#58 - 60 pi165_k77#59 - 120 pi143_k64#60
      - 50 pi65_k33#61 - 183 pi162_k76#62 - 226 pi2_k2#63 - 159 pi26_k18#64
      - 94 pi35_k25#65 - 104 pi69_k34#66 - 261 pi148_k65#67 - 70 pi158_k75#68
      - 327 pi62_k32#69 - 108 pi126_k52#70 - 391 pi135_k54#71
      - 190 pi137_k55#72 - 116 pi107_k45#73 - 226 pi146_k65#74
      - 58 pi160_k75#75 - 141 pi15_k15#76 - 150 pi73_k35#77 - 58 pi86_k39#78
      - 30 pi142_k64#79 - 151 pi147_k65#80 - 42 pi155_k74#81 - 143 pi163_k76#82
      - 184 pi7_k3#83 - 79 pi36_k25#84 - 170 pi44_k27#85 - 199 pi47_k28#86
      - 134 pi70_k34#87 - 150 pi74_k35#88 - 105 pi144_k64#89 - 186 pi3_k2#90
      - 154 pi6_k3#91 - 131 pi27_k18#92 - 189 pi48_k28#93 - 44 pi56_k31#94
      - 172 pi60_k32#95 - 57 pi154_k74#96 - 61 pi16_k15#97 - 97 pi22_k17#98
      - 90 pi45_k27#99 - 74 pi82_k37#100 - 42 pi156_k74#101 - 331 pi20_k16#102
      - 91 pi37_k25#103 - 58 pi58_k31#104 - 246 pi72_k35#105 - 143 pi76_k36#106
      - 211 pi139_k55#107 - 162 pi151_k66#108 - 241 pi4_k2#109 - 163 pi8_k3#110
      - 137 pi68_k34#111 - 211 pi14_k15#112 - 112 pi23_k17#113
      - 83 pi106_k45#114 - 52 pi64_k33#115 - 122 pi90_k41#116
      - 86 pi108_k45#117 - 55 pi117_k48#118 - 143 pi164_k76#119
      - 95 pi81_k37#120 - 79 pi95_k42#121 - 134 pi78_k36#122 - 150 pi10_k14#123
      - 60 pi40_k26#124 - 43 pi66_k33#125 - 137 pi80_k37#126 - 174 pi87_k39#127
      - 81 pi116_k48#128 - 138 pi11_k14#129 - 205 pi121_k50#130
      - 94 pi24_k17#131 - 92 pi91_k41#132 - 71 pi94_k42#133 - 84 pi159_k75#134
      - 201 pi19_k16#135 - 112 pi33_k24#136 - 204 pi49_k28#137
      - 75 pi115_k48#138 - 180 pi120_k50#139 - 73 pi127_k52#140
      - 162 pi43_k27#141 - 67 pi125_k52#142 - 221 pi18_k16#143
      - 80 pi32_k24#144 - 187 pi61_k32#145 - 67 pi28_k18#146 - 167 pi77_k36#147
      - 75 pi150_k66#148 - 66 pi31_k24#149 - 150 pi85_k39#150 - 73 pi96_k42#151
      - 124 pi99_k43#152 - 47 pi41_k26#153 - 133 pi52_k29#154
      - 120 pi100_k43#155 - 38 pi39_k26#156 - 245 pi122_k50#157
      - 110 pi12_k14#158 - 176 pi104_k44#159 - 107 pi92_k41#160
      - 82 pi98_k43#161 - 113 pi111_k47#162 - 41 pi53_k29#163
      - 177 pi112_k47#164 - 146 pi103_k44#165 - 66 pi131_k53#166
      - 57 pi152_k66#167 - 149 pi51_k29#168 - 205 pi113_k47#169
      - 56 pi129_k53#170 - 121 pi133_k54#171 - 101 pi102_k44#172
      - 70 pi57_k31#173 - 69 pi130_k53#174 - 171 pi134_k54#175
      - 115 pi138_k55#176
Subject To
 _Embedding_clash_const_of_vlink1_vnp_1#0: vnp1#0 - pi0_k1#1 <= 0
 _Embedding_clash_const_of_vlink2_vnp_1#1: vnp1#0 - pi1_k2#2 <= 0
 _Embedding_clash_const_of_vlink3_vnp_1#2: vnp1#0 - pi5_k3#3 <= 0
 _Embedding_clash_const_of_vlink14_vnp_4#3: vnp4#4 - pi9_k14#5 <= 0
 _Embedding_clash_const_of_vlink15_vnp_4#4: vnp4#4 - pi13_k15#6 <= 0
 _Embedding_clash_const_of_vlink16_vnp_4#5: vnp4#4 - pi17_k16#7 <= 0
 _Embedding_clash_const_of_vlink17_vnp_4#6: vnp4#4 - pi21_k17#8 <= 0
 _Embedding_clash_const_of_vlink18_vnp_4#7: vnp4#4 - pi25_k18#9 <= 0
 _Embedding_clash_const_of_vlink23_vnp_6#8: vnp6#10 - pi29_k23#11 <= 0
 _Embedding_clash_const_of_vlink24_vnp_6#9: vnp6#10 - pi30_k24#12 <= 0
 _Embedding_clash_const_of_vlink25_vnp_6#10: vnp6#10 - pi34_k25#13 <= 0
 _Embedding_clash_const_of_vlink26_vnp_6#11: vnp6#10 - pi38_k26#14 <= 0
 _Embedding_clash_const_of_vlink27_vnp_6#12: vnp6#10 - pi42_k27#15 <= 0
 _Embedding_clash_const_of_vlink28_vnp_6#13: vnp6#10 - pi46_k28#16 <= 0
 _Embedding_clash_const_of_vlink29_vnp_7#14: vnp7#17 - pi50_k29#18 <= 0
 _Embedding_clash_const_of_vlink30_vnp_7#15: vnp7#17 - pi54_k30#19 <= 0
 _Embedding_clash_const_of_vlink31_vnp_7#16: vnp7#17 - pi55_k31#20 <= 0
 _Embedding_clash_const_of_vlink32_vnp_7#17: vnp7#17 - pi59_k32#21 <= 0
 _Embedding_clash_const_of_vlink33_vnp_7#18: vnp7#17 - pi63_k33#22 <= 0
 _Embedding_clash_const_of_vlink34_vnp_8#19: vnp8#23 - pi67_k34#24 <= 0
 _Embedding_clash_const_of_vlink35_vnp_8#20: vnp8#23 - pi71_k35#25 <= 0
 _Embedding_clash_const_of_vlink36_vnp_8#21: vnp8#23 - pi75_k36#26 <= 0
 _Embedding_clash_const_of_vlink37_vnp_8#22: vnp8#23 - pi79_k37#27 <= 0
 _Embedding_clash_const_of_vlink38_vnp_8#23: vnp8#23 - pi83_k38#28 <= 0
 _Embedding_clash_const_of_vlink39_vnp_8#24: vnp8#23 - pi84_k39#29 <= 0
 _Embedding_clash_const_of_vlink40_vnp_9#25: vnp9#30 - pi88_k40#31 <= 0
 _Embedding_clash_const_of_vlink41_vnp_9#26: vnp9#30 - pi89_k41#32 <= 0
 _Embedding_clash_const_of_vlink42_vnp_9#27: vnp9#30 - pi93_k42#33 <= 0
 _Embedding_clash_const_of_vlink43_vnp_9#28: vnp9#30 - pi97_k43#34 <= 0
 _Embedding_clash_const_of_vlink44_vnp_9#29: vnp9#30 - pi101_k44#35 <= 0
 _Embedding_clash_const_of_vlink45_vnp_10#30: vnp10#36 - pi105_k45#37 <= 0
 _Embedding_clash_const_of_vlink46_vnp_10#31: vnp10#36 - pi109_k46#38 <= 0
 _Embedding_clash_const_of_vlink47_vnp_10#32: vnp10#36 - pi110_k47#39 <= 0
 _Embedding_clash_const_of_vlink48_vnp_10#33: vnp10#36 - pi114_k48#40 <= 0
 _Embedding_clash_const_of_vlink49_vnp_11#34: vnp11#41 - pi118_k49#42 <= 0
 _Embedding_clash_const_of_vlink50_vnp_11#35: vnp11#41 - pi119_k50#43 <= 0
 _Embedding_clash_const_of_vlink51_vnp_11#36: vnp11#41 - pi123_k51#44 <= 0
 _Embedding_clash_const_of_vlink52_vnp_11#37: vnp11#41 - pi124_k52#45 <= 0
 _Embedding_clash_const_of_vlink53_vnp_11#38: vnp11#41 - pi128_k53#46 <= 0
 _Embedding_clash_const_of_vlink54_vnp_12#39: vnp12#47 - pi132_k54#48 <= 0
 _Embedding_clash_const_of_vlink55_vnp_12#40: vnp12#47 - pi136_k55#49 <= 0
 _Embedding_clash_const_of_vlink56_vnp_12#41: vnp12#47 - pi140_k56#50 <= 0
 _Embedding_clash_const_of_vlink64_vnp_15#42: vnp15#51 - pi141_k64#52 <= 0
 _Embedding_clash_const_of_vlink65_vnp_15#43: vnp15#51 - pi145_k65#53 <= 0
 _Embedding_clash_const_of_vlink66_vnp_15#44: vnp15#51 - pi149_k66#54 <= 0
 _Embedding_clash_const_of_vlink74_vnp_18#45: vnp18#55 - pi153_k74#56 <= 0
 _Embedding_clash_const_of_vlink75_vnp_18#46: vnp18#55 - pi157_k75#57 <= 0
 _Embedding_clash_const_of_vlink76_vnp_18#47: vnp18#55 - pi161_k76#58 <= 0
 _Embedding_clash_const_of_vlink77_vnp_18#48: vnp18#55 - pi165_k77#59 <= 0
 BW_capacity_of_substrate_link_1#49: pi63_k33#22 + 5 pi161_k76#58
                                 + 3 pi165_k77#59 + 3 pi143_k64#60 <= 20
 BW_capacity_of_substrate_link_2#50: 2 pi54_k30#19 + 5 pi59_k32#21
                                 + 3 pi143_k64#60 + pi65_k33#61
                                 + 5 pi162_k76#62 <= 20
 BW_capacity_of_substrate_link_3#51: 3 pi5_k3#3 + pi55_k31#20 + 5 pi59_k32#21
                                 + 3 pi71_k35#25 + pi153_k74#56 + 5 pi2_k2#63
                                 + 4 pi26_k18#64 + 3 pi35_k25#65
                                 + 3 pi69_k34#66 + 5 pi148_k65#67
                                 + 2 pi158_k75#68 <= 20
 BW_capacity_of_substrate_link_4#52: 5 pi1_k2#2 + 3 pi5_k3#3 + 3 pi67_k34#24
                                 + 3 pi71_k35#25 + 3 pi75_k36#26
                                 + 5 pi62_k32#69 + pi126_k52#70
                                 + 5 pi135_k54#71 + 3 pi137_k55#72 <= 20
 BW_capacity_of_substrate_link_5#53: 5 pi46_k28#16 + 3 pi71_k35#25
                                 + 3 pi79_k37#27 + 3 pi141_k64#52
                                 + pi153_k74#56 + pi65_k33#61 + 5 pi162_k76#62
                                 + 3 pi107_k45#73 + 5 pi146_k65#74
                                 + 2 pi160_k75#75 <= 20
 BW_capacity_of_substrate_link_6#54: 3 pi105_k45#37 + 5 pi15_k15#76
                                 + 3 pi73_k35#77 + 4 pi86_k39#78
                                 + 3 pi142_k64#79 + 5 pi147_k65#80
                                 + pi155_k74#81 + 5 pi163_k76#82 <= 20
 BW_capacity_of_substrate_link_7#55: pi0_k1#1 + 5 pi2_k2#63 + 4 pi26_k18#64
                                 + 2 pi158_k75#68 + 3 pi107_k45#73
                                 + pi155_k74#81 + 3 pi7_k3#83 + 3 pi36_k25#84
                                 + 4 pi44_k27#85 + 5 pi47_k28#86
                                 + 3 pi70_k34#87 + 3 pi74_k35#88
                                 + 3 pi144_k64#89 <= 20
 BW_capacity_of_substrate_link_8#56: 3 pi34_k25#13 + 4 pi42_k27#15
                                 + 3 pi79_k37#27 + 3 pi141_k64#52
                                 + 3 pi69_k34#66 + 5 pi146_k65#74 + 5 pi3_k2#90
                                 + 3 pi6_k3#91 + 4 pi27_k18#92 + 5 pi48_k28#93
                                 + pi56_k31#94 + 5 pi60_k32#95 + pi154_k74#96
                                 <= 20
 BW_capacity_of_substrate_link_9#57: 5 pi1_k2#2 + 4 pi25_k18#9 + pi93_k42#33
                                 + 2 pi157_k75#57 + 3 pi73_k35#77
                                 + 4 pi86_k39#78 + 3 pi142_k64#79
                                 + 5 pi147_k65#80 + 3 pi7_k3#83 + 3 pi36_k25#84
                                 + 3 pi70_k34#87 + 5 pi16_k15#97
                                 + 3 pi22_k17#98 + 4 pi45_k27#99
                                 + 3 pi82_k37#100 + pi156_k74#101 <= 20
 BW_capacity_of_substrate_link_10#58: 5 pi1_k2#2 + 3 pi67_k34#24
                                 + 2 pi157_k75#57 + pi126_k52#70 + 3 pi6_k3#91
                                 + pi154_k74#96 + 5 pi20_k16#102
                                 + 3 pi37_k25#103 + pi58_k31#104
                                 + 3 pi72_k35#105 + 3 pi76_k36#106
                                 + 3 pi139_k55#107 + 3 pi151_k66#108 <= 20
 BW_capacity_of_substrate_link_11#59: pi55_k31#20 + 5 pi59_k32#21
                                 + 3 pi75_k36#26 + 4 pi26_k18#64
                                 + 3 pi35_k25#65 + 5 pi148_k65#67
                                 + 5 pi135_k54#71 + 3 pi137_k55#72
                                 + 5 pi20_k16#102 + 3 pi151_k66#108
                                 + 5 pi4_k2#109 + 3 pi8_k3#110 + 3 pi68_k34#111
                                 <= 20
 BW_capacity_of_substrate_link_12#60: 5 pi13_k15#6 + 3 pi21_k17#8
                                 + 5 pi109_k46#38 + 4 pi44_k27#85
                                 + 5 pi47_k28#86 <= 20
 BW_capacity_of_substrate_link_13#61: pi93_k42#33 + 2 pi157_k75#57
                                 + 5 pi163_k76#82 + 3 pi82_k37#100
                                 + 5 pi14_k15#112 + 3 pi23_k17#113
                                 + 3 pi106_k45#114 <= 20
 BW_capacity_of_substrate_link_14#62: 5 pi161_k76#58 + 2 pi160_k75#75
                                 + pi64_k33#115 + 3 pi90_k41#116
                                 + 3 pi108_k45#117 + 2 pi117_k48#118 <= 20
 BW_capacity_of_substrate_link_15#63: 5 pi46_k28#16 + pi63_k33#22
                                 + 3 pi71_k35#25 + 3 pi79_k37#27
                                 + 3 pi105_k45#37 + 5 pi145_k65#53
                                 + 5 pi15_k15#76 + 4 pi86_k39#78
                                 + 3 pi90_k41#116 + 2 pi117_k48#118
                                 + 5 pi164_k76#119 <= 20
 BW_capacity_of_substrate_link_16#64: 3 pi88_k40#31 + 3 pi89_k41#32
                                 + 2 pi114_k48#40 + 5 pi14_k15#112
                                 + 3 pi23_k17#113 + 3 pi106_k45#114
                                 + pi64_k33#115 + 5 pi164_k76#119
                                 + 3 pi81_k37#120 + pi95_k42#121 <= 20
 BW_capacity_of_substrate_link_17#65: 5 pi62_k32#69 + pi126_k52#70
                                 + 5 pi135_k54#71 + 3 pi137_k55#72
                                 + 3 pi78_k36#122 <= 20
 BW_capacity_of_substrate_link_18#66: 5 pi46_k28#16 + 3 pi23_k17#113
                                 + 4 pi10_k14#123 + pi40_k26#124 + pi66_k33#125
                                 + 3 pi80_k37#126 + 4 pi87_k39#127
                                 + 2 pi116_k48#128 <= 20
 BW_capacity_of_substrate_link_19#67: 5 pi17_k16#7 + 3 pi21_k17#8
                                 + 2 pi30_k24#12 + pi38_k26#14 + 5 pi47_k28#86
                                 + 3 pi80_k37#126 + 2 pi116_k48#128
                                 + 4 pi11_k14#129 + 5 pi121_k50#130 <= 20
 BW_capacity_of_substrate_link_20#68: 2 pi114_k48#40 + 3 pi81_k37#120
                                 + 3 pi24_k17#131 + 3 pi91_k41#132
                                 + pi94_k42#133 + 2 pi159_k75#134 <= 20
 BW_capacity_of_substrate_link_21#69: 5 pi13_k15#6 + 4 pi123_k51#44
                                 + 3 pi72_k35#105 + 4 pi11_k14#129
                                 + 3 pi91_k41#132 + 5 pi19_k16#135
                                 + 2 pi33_k24#136 + 5 pi49_k28#137
                                 + 2 pi115_k48#138 + 5 pi120_k50#139
                                 + pi127_k52#140 <= 20
 BW_capacity_of_substrate_link_22#70: 5 pi17_k16#7 + 2 pi30_k24#12
                                 + 5 pi48_k28#93 + 3 pi22_k17#98
                                 + 3 pi72_k35#105 + 3 pi80_k37#126
                                 + 2 pi159_k75#134 + 4 pi43_k27#141
                                 + pi125_k52#142 <= 20
 BW_capacity_of_substrate_link_23#71: pi38_k26#14 + 5 pi119_k50#43
                                 + pi124_k52#45 + pi94_k42#133 + 4 pi43_k27#141
                                 + 5 pi18_k16#143 + 2 pi32_k24#144 <= 20
 BW_capacity_of_substrate_link_24#72: 4 pi42_k27#15 + 5 pi61_k32#145 <= 20
 BW_capacity_of_substrate_link_25#73: 2 pi30_k24#12 + 3 pi34_k25#13
                                 + 2 pi83_k38#28 + 3 pi149_k66#54
                                 + 4 pi86_k39#78 + 5 pi16_k15#97
                                 + 3 pi76_k36#106 + 4 pi28_k18#146 <= 20
 BW_capacity_of_substrate_link_26#74: 5 pi17_k16#7 + 4 pi25_k18#9 + pi93_k42#33
                                 + 5 pi146_k65#74 + pi56_k31#94 + 5 pi60_k32#95
                                 + 3 pi139_k55#107 + 5 pi4_k2#109
                                 + 3 pi8_k3#110 + 3 pi68_k34#111
                                 + pi125_k52#142 + 3 pi77_k36#147
                                 + 3 pi150_k66#148 <= 20
 BW_capacity_of_substrate_link_27#75: 3 pi75_k36#26 + 3 pi35_k25#65
                                 + 5 pi18_k16#143 + 4 pi28_k18#146 <= 20
 BW_capacity_of_substrate_link_28#76: 3 pi29_k23#11 + 5 pi18_k16#143
                                 + 2 pi31_k24#149 + 4 pi85_k39#150
                                 + pi96_k42#151 + 2 pi99_k43#152 <= 20
 BW_capacity_of_substrate_link_29#77: 5 pi119_k50#43 + pi124_k52#45
                                 + pi94_k42#133 + 5 pi61_k32#145 + pi41_k26#153
                                 + 4 pi52_k29#154 + 2 pi100_k43#155 <= 20
 BW_capacity_of_substrate_link_30#78: 2 pi31_k24#149 + 4 pi85_k39#150
                                 + 2 pi99_k43#152 + 4 pi52_k29#154
                                 + pi39_k26#156 + 5 pi122_k50#157 <= 20
 BW_capacity_of_substrate_link_31#79: 4 pi50_k29#18 + 2 pi97_k43#34
                                 + 4 pi110_k47#39 + 4 pi118_k49#42
                                 + 5 pi145_k65#53 + pi95_k42#121
                                 + 5 pi120_k50#139 + pi127_k52#140
                                 + pi41_k26#153 + 4 pi12_k14#158
                                 + 5 pi104_k44#159 <= 20
 BW_capacity_of_substrate_link_32#80: 4 pi9_k14#5 + pi66_k33#125
                                 + 4 pi87_k39#127 + 5 pi121_k50#130
                                 + 5 pi19_k16#135 + 5 pi49_k28#137
                                 + 2 pi31_k24#149 + pi39_k26#156 <= 20
 BW_capacity_of_substrate_link_33#81: pi63_k33#22 + 2 pi97_k43#34
                                 + 4 pi110_k47#39 + 5 pi145_k65#53
                                 + 3 pi72_k35#105 + pi95_k42#121 + pi40_k26#124
                                 + 2 pi115_k48#138 + 4 pi85_k39#150
                                 + 3 pi92_k41#160 <= 20
 BW_capacity_of_substrate_link_34#82: 4 pi84_k39#29 + 3 pi89_k41#32
                                 + 5 pi14_k15#112 + 4 pi10_k14#123
                                 + 2 pi98_k43#161 + 4 pi111_k47#162 <= 20
 BW_capacity_of_substrate_link_35#83: 4 pi9_k14#5 + 5 pi13_k15#6
                                 + 3 pi91_k41#132 + 5 pi104_k44#159
                                 + 4 pi53_k29#163 + 4 pi112_k47#164 <= 20
 BW_capacity_of_substrate_link_36#84: 4 pi84_k39#29 + 5 pi101_k44#35
                                 + 5 pi16_k15#97 + 4 pi12_k14#158
                                 + 2 pi98_k43#161 + 4 pi111_k47#162
                                 + 4 pi53_k29#163 <= 20
 BW_capacity_of_substrate_link_37#85: 4 pi84_k39#29 + 5 pi16_k15#97
                                 + 5 pi103_k44#165 + pi131_k53#166
                                 + 3 pi152_k66#167 <= 20
 BW_capacity_of_substrate_link_38#86: 3 pi149_k66#54 + pi96_k42#151
                                 + 2 pi99_k43#152 + 5 pi103_k44#165
                                 + pi131_k53#166 <= 20
 BW_capacity_of_substrate_link_39#87: 2 pi97_k43#34 + 5 pi101_k44#35
                                 + 5 pi145_k65#53 + pi94_k42#133
                                 + 3 pi152_k66#167 + 4 pi51_k29#168
                                 + 4 pi113_k47#169 + pi129_k53#170
                                 + 5 pi133_k54#171 <= 20
 BW_capacity_of_substrate_link_40#88: 4 pi50_k29#18 + 4 pi110_k47#39
                                 + pi124_k52#45 + pi128_k53#46 + 5 pi61_k32#145
                                 + 5 pi133_k54#171 + 5 pi102_k44#172 <= 20
 BW_capacity_of_substrate_link_41#89: pi93_k42#33 + 2 pi140_k56#50
                                 + 5 pi146_k65#74 + 3 pi150_k66#148
                                 + pi57_k31#173 + pi130_k53#174
                                 + 5 pi134_k54#175 + 3 pi138_k55#176 <= 20
 BW_capacity_of_substrate_link_42#90: pi55_k31#20 + 5 pi59_k32#21
                                 + 3 pi136_k55#49 + 3 pi78_k36#122
                                 + pi125_k52#142 + pi130_k53#174
                                 + 5 pi134_k54#175 <= 20
 BW_capacity_of_substrate_link_43#91: 5 pi132_k54#48 + 4 pi51_k29#168
                                 + 4 pi113_k47#169 + pi129_k53#170
                                 + 5 pi102_k44#172 + pi57_k31#173
                                 + 3 pi138_k55#176 <= 20
 BW_capacity_of_substrate_link_44#92: pi124_k52#45 + pi128_k53#46
                                 + 5 pi132_k54#48 + 3 pi136_k55#49
                                 + 5 pi62_k32#69 + 3 pi78_k36#122 <= 20
 c94#93:                         - 912 vnp1#0 + 36 pi0_k1#1 + 226 pi1_k2#2
                                 + 88 pi5_k3#3 - 1808 vnp4#4 + 46 pi9_k14#5
                                 + 131 pi13_k15#6 + 186 pi17_k16#7
                                 + 73 pi21_k17#8 + 43 pi25_k18#9 - 1653 vnp6#10
                                 + 30 pi29_k23#11 + 78 pi30_k24#12
                                 + 49 pi34_k25#13 + 45 pi38_k26#14
                                 + 50 pi42_k27#15 + 159 pi46_k28#16
                                 - 681 vnp7#17 + 81 pi50_k29#18
                                 + 54 pi54_k30#19 + 51 pi55_k31#20
                                 + 207 pi59_k32#21 + 37 pi63_k33#22
                                 - 1889 vnp8#23 + 128 pi67_k34#24
                                 + 129 pi71_k35#25 + 146 pi75_k36#26
                                 + 77 pi79_k37#27 + 21 pi83_k38#28
                                 + 106 pi84_k39#29 - 1116 vnp9#30
                                 + 49 pi88_k40#31 + 119 pi89_k41#32
                                 + 63 pi93_k42#33 + 94 pi97_k43#34
                                 + 96 pi101_k44#35 - 884 vnp10#36
                                 + 41 pi105_k45#37 + 53 pi109_k46#38
                                 + 137 pi110_k47#39 + 53 pi114_k48#40
                                 - 1384 vnp11#41 + 83 pi118_k49#42
                                 + 165 pi119_k50#43 + 76 pi123_k51#44
                                 + 70 pi124_k52#45 + 39 pi128_k53#46
                                 - 1064 vnp12#47 + 106 pi132_k54#48
                                 + 58 pi136_k55#49 + 53 pi140_k56#50
                                 - 599 vnp15#51 + 75 pi141_k64#52
                                 + 231 pi145_k65#53 + 81 pi149_k66#54
                                 - 777 vnp18#55 + 35 pi153_k74#56
                                 + 70 pi157_k75#57 + 118 pi161_k76#58
                                 + 60 pi165_k77#59 + 120 pi143_k64#60
                                 + 50 pi65_k33#61 + 183 pi162_k76#62
                                 + 226 pi2_k2#63 + 159 pi26_k18#64
                                 + 94 pi35_k25#65 + 104 pi69_k34#66
                                 + 261 pi148_k65#67 + 70 pi158_k75#68
                                 + 327 pi62_k32#69 + 108 pi126_k52#70
                                 + 391 pi135_k54#71 + 190 pi137_k55#72
                                 + 116 pi107_k45#73 + 226 pi146_k65#74
                                 + 58 pi160_k75#75 + 141 pi15_k15#76
                                 + 150 pi73_k35#77 + 58 pi86_k39#78
                                 + 30 pi142_k64#79 + 151 pi147_k65#80
                                 + 42 pi155_k74#81 + 143 pi163_k76#82
                                 + 184 pi7_k3#83 + 79 pi36_k25#84
                                 + 170 pi44_k27#85 + 199 pi47_k28#86
                                 + 134 pi70_k34#87 + 150 pi74_k35#88
                                 + 105 pi144_k64#89 + 186 pi3_k2#90
                                 + 154 pi6_k3#91 + 131 pi27_k18#92
                                 + 189 pi48_k28#93 + 44 pi56_k31#94
                                 + 172 pi60_k32#95 + 57 pi154_k74#96
                                 + 61 pi16_k15#97 + 97 pi22_k17#98
                                 + 90 pi45_k27#99 + 74 pi82_k37#100
                                 + 42 pi156_k74#101 + 331 pi20_k16#102
                                 + 91 pi37_k25#103 + 58 pi58_k31#104
                                 + 246 pi72_k35#105 + 143 pi76_k36#106
                                 + 211 pi139_k55#107 + 162 pi151_k66#108
                                 + 241 pi4_k2#109 + 163 pi8_k3#110
                                 + 137 pi68_k34#111 + 211 pi14_k15#112
                                 + 112 pi23_k17#113 + 83 pi106_k45#114
                                 + 52 pi64_k33#115 + 122 pi90_k41#116
                                 + 86 pi108_k45#117 + 55 pi117_k48#118
                                 + 143 pi164_k76#119 + 95 pi81_k37#120
                                 + 79 pi95_k42#121 + 134 pi78_k36#122
                                 + 150 pi10_k14#123 + 60 pi40_k26#124
                                 + 43 pi66_k33#125 + 137 pi80_k37#126
                                 + 174 pi87_k39#127 + 81 pi116_k48#128
                                 + 138 pi11_k14#129 + 205 pi121_k50#130
                                 + 94 pi24_k17#131 + 92 pi91_k41#132
                                 + 71 pi94_k42#133 + 84 pi159_k75#134
                                 + 201 pi19_k16#135 + 112 pi33_k24#136
                                 + 204 pi49_k28#137 + 75 pi115_k48#138
                                 + 180 pi120_k50#139 + 73 pi127_k52#140
                                 + 162 pi43_k27#141 + 67 pi125_k52#142
                                 + 221 pi18_k16#143 + 80 pi32_k24#144
                                 + 187 pi61_k32#145 + 67 pi28_k18#146
                                 + 167 pi77_k36#147 + 75 pi150_k66#148
                                 + 66 pi31_k24#149 + 150 pi85_k39#150
                                 + 73 pi96_k42#151 + 124 pi99_k43#152
                                 + 47 pi41_k26#153 + 133 pi52_k29#154
                                 + 120 pi100_k43#155 + 38 pi39_k26#156
                                 + 245 pi122_k50#157 + 110 pi12_k14#158
                                 + 176 pi104_k44#159 + 107 pi92_k41#160
                                 + 82 pi98_k43#161 + 113 pi111_k47#162
                                 + 41 pi53_k29#163 + 177 pi112_k47#164
                                 + 146 pi103_k44#165 + 66 pi131_k53#166
                                 + 57 pi152_k66#167 + 149 pi51_k29#168
                                 + 205 pi113_k47#169 + 56 pi129_k53#170
                                 + 121 pi133_k54#171 + 101 pi102_k44#172
                                 + 70 pi57_k31#173 + 69 pi130_k53#174
                                 + 171 pi134_k54#175 + 115 pi138_k55#176 <= 0
Bounds
 0 <= vnp1#0 <= 1
 0 <= pi0_k1#1 <= 1
 0 <= pi1_k2#2 <= 1
 0 <= pi5_k3#3 <= 1
 0 <= vnp4#4 <= 1
 0 <= pi9_k14#5 <= 1
 0 <= pi13_k15#6 <= 1
 0 <= pi17_k16#7 <= 1
 0 <= pi21_k17#8 <= 1
 0 <= pi25_k18#9 <= 1
 0 <= vnp6#10 <= 1
 0 <= pi29_k23#11 <= 1
 0 <= pi30_k24#12 <= 1
 0 <= pi34_k25#13 <= 1
 0 <= pi38_k26#14 <= 1
 0 <= pi42_k27#15 <= 1
 0 <= pi46_k28#16 <= 1
 0 <= vnp7#17 <= 1
 0 <= pi50_k29#18 <= 1
 0 <= pi54_k30#19 <= 1
 0 <= pi55_k31#20 <= 1
 0 <= pi59_k32#21 <= 1
 0 <= pi63_k33#22 <= 1
 0 <= vnp8#23 <= 1
 0 <= pi67_k34#24 <= 1
 0 <= pi71_k35#25 <= 1
 0 <= pi75_k36#26 <= 1
 0 <= pi79_k37#27 <= 1
 0 <= pi83_k38#28 <= 1
 0 <= pi84_k39#29 <= 1
 0 <= vnp9#30 <= 1
 0 <= pi88_k40#31 <= 1
 0 <= pi89_k41#32 <= 1
 0 <= pi93_k42#33 <= 1
 0 <= pi97_k43#34 <= 1
 0 <= pi101_k44#35 <= 1
 0 <= vnp10#36 <= 1
 0 <= pi105_k45#37 <= 1
 0 <= pi109_k46#38 <= 1
 0 <= pi110_k47#39 <= 1
 0 <= pi114_k48#40 <= 1
 0 <= vnp11#41 <= 1
 0 <= pi118_k49#42 <= 1
 0 <= pi119_k50#43 <= 1
 0 <= pi123_k51#44 <= 1
 0 <= pi124_k52#45 <= 1
 0 <= pi128_k53#46 <= 1
 0 <= vnp12#47 <= 1
 0 <= pi132_k54#48 <= 1
 0 <= pi136_k55#49 <= 1
 0 <= pi140_k56#50 <= 1
 0 <= vnp15#51 <= 1
 0 <= pi141_k64#52 <= 1
 0 <= pi145_k65#53 <= 1
 0 <= pi149_k66#54 <= 1
 0 <= vnp18#55 <= 1
 0 <= pi153_k74#56 <= 1
 0 <= pi157_k75#57 <= 1
 0 <= pi161_k76#58 <= 1
 0 <= pi165_k77#59 <= 1
 0 <= pi143_k64#60 <= 1
 0 <= pi65_k33#61 <= 1
 0 <= pi162_k76#62 <= 1
 0 <= pi2_k2#63 <= 1
 0 <= pi26_k18#64 <= 1
 0 <= pi35_k25#65 <= 1
 0 <= pi69_k34#66 <= 1
 0 <= pi148_k65#67 <= 1
 0 <= pi158_k75#68 <= 1
 0 <= pi62_k32#69 <= 1
 0 <= pi126_k52#70 <= 1
 0 <= pi135_k54#71 <= 1
 0 <= pi137_k55#72 <= 1
 0 <= pi107_k45#73 <= 1
 0 <= pi146_k65#74 <= 1
 0 <= pi160_k75#75 <= 1
 0 <= pi15_k15#76 <= 1
 0 <= pi73_k35#77 <= 1
 0 <= pi86_k39#78 <= 1
 0 <= pi142_k64#79 <= 1
 0 <= pi147_k65#80 <= 1
 0 <= pi155_k74#81 <= 1
 0 <= pi163_k76#82 <= 1
 0 <= pi7_k3#83 <= 1
 0 <= pi36_k25#84 <= 1
 0 <= pi44_k27#85 <= 1
 0 <= pi47_k28#86 <= 1
 0 <= pi70_k34#87 <= 1
 0 <= pi74_k35#88 <= 1
 0 <= pi144_k64#89 <= 1
 0 <= pi3_k2#90 <= 1
 0 <= pi6_k3#91 <= 1
 0 <= pi27_k18#92 <= 1
 0 <= pi48_k28#93 <= 1
 0 <= pi56_k31#94 <= 1
 0 <= pi60_k32#95 <= 1
 0 <= pi154_k74#96 <= 1
 0 <= pi16_k15#97 <= 1
 0 <= pi22_k17#98 <= 1
 0 <= pi45_k27#99 <= 1
 0 <= pi82_k37#100 <= 1
 0 <= pi156_k74#101 <= 1
 0 <= pi20_k16#102 <= 1
 0 <= pi37_k25#103 <= 1
 0 <= pi58_k31#104 <= 1
 0 <= pi72_k35#105 <= 1
 0 <= pi76_k36#106 <= 1
 0 <= pi139_k55#107 <= 1
 0 <= pi151_k66#108 <= 1
 0 <= pi4_k2#109 <= 1
 0 <= pi8_k3#110 <= 1
 0 <= pi68_k34#111 <= 1
 0 <= pi14_k15#112 <= 1
 0 <= pi23_k17#113 <= 1
 0 <= pi106_k45#114 <= 1
 0 <= pi64_k33#115 <= 1
 0 <= pi90_k41#116 <= 1
 0 <= pi108_k45#117 <= 1
 0 <= pi117_k48#118 <= 1
 0 <= pi164_k76#119 <= 1
 0 <= pi81_k37#120 <= 1
 0 <= pi95_k42#121 <= 1
 0 <= pi78_k36#122 <= 1
 0 <= pi10_k14#123 <= 1
 0 <= pi40_k26#124 <= 1
 0 <= pi66_k33#125 <= 1
 0 <= pi80_k37#126 <= 1
 0 <= pi87_k39#127 <= 1
 0 <= pi116_k48#128 <= 1
 0 <= pi11_k14#129 <= 1
 0 <= pi121_k50#130 <= 1
 0 <= pi24_k17#131 <= 1
 0 <= pi91_k41#132 <= 1
 0 <= pi94_k42#133 <= 1
 0 <= pi159_k75#134 <= 1
 0 <= pi19_k16#135 <= 1
 0 <= pi33_k24#136 <= 1
 0 <= pi49_k28#137 <= 1
 0 <= pi115_k48#138 <= 1
 0 <= pi120_k50#139 <= 1
 0 <= pi127_k52#140 <= 1
 0 <= pi43_k27#141 <= 1
 0 <= pi125_k52#142 <= 1
 0 <= pi18_k16#143 <= 1
 0 <= pi32_k24#144 <= 1
 0 <= pi61_k32#145 <= 1
 0 <= pi28_k18#146 <= 1
 0 <= pi77_k36#147 <= 1
 0 <= pi150_k66#148 <= 1
 0 <= pi31_k24#149 <= 1
 0 <= pi85_k39#150 <= 1
 0 <= pi96_k42#151 <= 1
 0 <= pi99_k43#152 <= 1
 0 <= pi41_k26#153 <= 1
 0 <= pi52_k29#154 <= 1
 0 <= pi100_k43#155 <= 1
 0 <= pi39_k26#156 <= 1
 0 <= pi122_k50#157 <= 1
 0 <= pi12_k14#158 <= 1
 0 <= pi104_k44#159 <= 1
 0 <= pi92_k41#160 <= 1
 0 <= pi98_k43#161 <= 1
 0 <= pi111_k47#162 <= 1
 0 <= pi53_k29#163 <= 1
 0 <= pi112_k47#164 <= 1
 0 <= pi103_k44#165 <= 1
 0 <= pi131_k53#166 <= 1
 0 <= pi152_k66#167 <= 1
 0 <= pi51_k29#168 <= 1
 0 <= pi113_k47#169 <= 1
 0 <= pi129_k53#170 <= 1
 0 <= pi133_k54#171 <= 1
 0 <= pi102_k44#172 <= 1
 0 <= pi57_k31#173 <= 1
 0 <= pi130_k53#174 <= 1
 0 <= pi134_k54#175 <= 1
 0 <= pi138_k55#176 <= 1
Binaries
 vnp1#0  pi0_k1#1  pi1_k2#2  pi5_k3#3  vnp4#4  pi9_k14#5  pi13_k15#6 
 pi17_k16#7  pi21_k17#8  pi25_k18#9  vnp6#10  pi29_k23#11  pi30_k24#12 
 pi34_k25#13  pi38_k26#14  pi42_k27#15  pi46_k28#16  vnp7#17  pi50_k29#18 
 pi54_k30#19  pi55_k31#20  pi59_k32#21  pi63_k33#22  vnp8#23  pi67_k34#24 
 pi71_k35#25  pi75_k36#26  pi79_k37#27  pi83_k38#28  pi84_k39#29  vnp9#30 
 pi88_k40#31  pi89_k41#32  pi93_k42#33  pi97_k43#34  pi101_k44#35  vnp10#36 
 pi105_k45#37  pi109_k46#38  pi110_k47#39  pi114_k48#40  vnp11#41 
 pi118_k49#42  pi119_k50#43  pi123_k51#44  pi124_k52#45  pi128_k53#46 
 vnp12#47  pi132_k54#48  pi136_k55#49  pi140_k56#50  vnp15#51  pi141_k64#52 
 pi145_k65#53  pi149_k66#54  vnp18#55  pi153_k74#56  pi157_k75#57 
 pi161_k76#58  pi165_k77#59  pi143_k64#60  pi65_k33#61  pi162_k76#62 
 pi2_k2#63  pi26_k18#64  pi35_k25#65  pi69_k34#66  pi148_k65#67  pi158_k75#68 
 pi62_k32#69  pi126_k52#70  pi135_k54#71  pi137_k55#72  pi107_k45#73 
 pi146_k65#74  pi160_k75#75  pi15_k15#76  pi73_k35#77  pi86_k39#78 
 pi142_k64#79  pi147_k65#80  pi155_k74#81  pi163_k76#82  pi7_k3#83 
 pi36_k25#84  pi44_k27#85  pi47_k28#86  pi70_k34#87  pi74_k35#88  pi144_k64#89 
 pi3_k2#90  pi6_k3#91  pi27_k18#92  pi48_k28#93  pi56_k31#94  pi60_k32#95 
 pi154_k74#96  pi16_k15#97  pi22_k17#98  pi45_k27#99  pi82_k37#100 
 pi156_k74#101  pi20_k16#102  pi37_k25#103  pi58_k31#104  pi72_k35#105 
 pi76_k36#106  pi139_k55#107  pi151_k66#108  pi4_k2#109  pi8_k3#110 
 pi68_k34#111  pi14_k15#112  pi23_k17#113  pi106_k45#114  pi64_k33#115 
 pi90_k41#116  pi108_k45#117  pi117_k48#118  pi164_k76#119  pi81_k37#120 
 pi95_k42#121  pi78_k36#122  pi10_k14#123  pi40_k26#124  pi66_k33#125 
 pi80_k37#126  pi87_k39#127  pi116_k48#128  pi11_k14#129  pi121_k50#130 
 pi24_k17#131  pi91_k41#132  pi94_k42#133  pi159_k75#134  pi19_k16#135 
 pi33_k24#136  pi49_k28#137  pi115_k48#138  pi120_k50#139  pi127_k52#140 
 pi43_k27#141  pi125_k52#142  pi18_k16#143  pi32_k24#144  pi61_k32#145 
 pi28_k18#146  pi77_k36#147  pi150_k66#148  pi31_k24#149  pi85_k39#150 
 pi96_k42#151  pi99_k43#152  pi41_k26#153  pi52_k29#154  pi100_k43#155 
 pi39_k26#156  pi122_k50#157  pi12_k14#158  pi104_k44#159  pi92_k41#160 
 pi98_k43#161  pi111_k47#162  pi53_k29#163  pi112_k47#164  pi103_k44#165 
 pi131_k53#166  pi152_k66#167  pi51_k29#168  pi113_k47#169  pi129_k53#170 
 pi133_k54#171  pi102_k44#172  pi57_k31#173  pi130_k53#174  pi134_k54#175 
 pi138_k55#176 
End
